NAME: PointSet_Angle_20_3
TYPE: TSP
COMMENT: Points chosen discrete uniformly at random out of ${0, \ldots, 500}^2$.
DIMENSION: 20
EDGE_WEIGHT_TYPE: EUC_2D
NODE_COORD_SECTION
1 209 116
2 472 187
3 441 274
4 162 122
5 46 227
6 447 63
7 489 474
8 438 117
9 278 199
10 422 322
11 181 429
12 150 332
13 182 62
14 97 78
15 461 381
16 74 169
17 497 45
18 356 184
19 66 264
20 306 112
EOF
